c File: flat50_3_0.col
c
c SOURCE: Joseph Culberson (joe@cs.ualberta.ca)
c DESCRIPTION: Quasi-random coloring problem
c              generated with flatness = 0
c                             probability = 0.139
c                             known coloring = 3
c                             random seed = 1724
c              Creation Date:  Tue Jun  9 12:16:18 1998
c Maximum degree = 8 Minimum degree = 1
c p edge 50 115
c cnf created by edge2cnf
p cnf 150 545
-1 -2 0
-1 -3 0
-2 -3 0
1 2 3 0
-4 -5 0
-4 -6 0
-5 -6 0
4 5 6 0
-7 -8 0
-7 -9 0
-8 -9 0
7 8 9 0
-10 -11 0
-10 -12 0
-11 -12 0
10 11 12 0
-13 -14 0
-13 -15 0
-14 -15 0
13 14 15 0
-16 -17 0
-16 -18 0
-17 -18 0
16 17 18 0
-19 -20 0
-19 -21 0
-20 -21 0
19 20 21 0
-22 -23 0
-22 -24 0
-23 -24 0
22 23 24 0
-25 -26 0
-25 -27 0
-26 -27 0
25 26 27 0
-28 -29 0
-28 -30 0
-29 -30 0
28 29 30 0
-31 -32 0
-31 -33 0
-32 -33 0
31 32 33 0
-34 -35 0
-34 -36 0
-35 -36 0
34 35 36 0
-37 -38 0
-37 -39 0
-38 -39 0
37 38 39 0
-40 -41 0
-40 -42 0
-41 -42 0
40 41 42 0
-43 -44 0
-43 -45 0
-44 -45 0
43 44 45 0
-46 -47 0
-46 -48 0
-47 -48 0
46 47 48 0
-49 -50 0
-49 -51 0
-50 -51 0
49 50 51 0
-52 -53 0
-52 -54 0
-53 -54 0
52 53 54 0
-55 -56 0
-55 -57 0
-56 -57 0
55 56 57 0
-58 -59 0
-58 -60 0
-59 -60 0
58 59 60 0
-61 -62 0
-61 -63 0
-62 -63 0
61 62 63 0
-64 -65 0
-64 -66 0
-65 -66 0
64 65 66 0
-67 -68 0
-67 -69 0
-68 -69 0
67 68 69 0
-70 -71 0
-70 -72 0
-71 -72 0
70 71 72 0
-73 -74 0
-73 -75 0
-74 -75 0
73 74 75 0
-76 -77 0
-76 -78 0
-77 -78 0
76 77 78 0
-79 -80 0
-79 -81 0
-80 -81 0
79 80 81 0
-82 -83 0
-82 -84 0
-83 -84 0
82 83 84 0
-85 -86 0
-85 -87 0
-86 -87 0
85 86 87 0
-88 -89 0
-88 -90 0
-89 -90 0
88 89 90 0
-91 -92 0
-91 -93 0
-92 -93 0
91 92 93 0
-94 -95 0
-94 -96 0
-95 -96 0
94 95 96 0
-97 -98 0
-97 -99 0
-98 -99 0
97 98 99 0
-100 -101 0
-100 -102 0
-101 -102 0
100 101 102 0
-103 -104 0
-103 -105 0
-104 -105 0
103 104 105 0
-106 -107 0
-106 -108 0
-107 -108 0
106 107 108 0
-109 -110 0
-109 -111 0
-110 -111 0
109 110 111 0
-112 -113 0
-112 -114 0
-113 -114 0
112 113 114 0
-115 -116 0
-115 -117 0
-116 -117 0
115 116 117 0
-118 -119 0
-118 -120 0
-119 -120 0
118 119 120 0
-121 -122 0
-121 -123 0
-122 -123 0
121 122 123 0
-124 -125 0
-124 -126 0
-125 -126 0
124 125 126 0
-127 -128 0
-127 -129 0
-128 -129 0
127 128 129 0
-130 -131 0
-130 -132 0
-131 -132 0
130 131 132 0
-133 -134 0
-133 -135 0
-134 -135 0
133 134 135 0
-136 -137 0
-136 -138 0
-137 -138 0
136 137 138 0
-139 -140 0
-139 -141 0
-140 -141 0
139 140 141 0
-142 -143 0
-142 -144 0
-143 -144 0
142 143 144 0
-145 -146 0
-145 -147 0
-146 -147 0
145 146 147 0
-148 -149 0
-148 -150 0
-149 -150 0
148 149 150 0
-55 -1 0
-56 -2 0
-57 -3 0
-73 -1 0
-74 -2 0
-75 -3 0
-79 -1 0
-80 -2 0
-81 -3 0
-94 -1 0
-95 -2 0
-96 -3 0
-124 -1 0
-125 -2 0
-126 -3 0
-139 -1 0
-140 -2 0
-141 -3 0
-115 -4 0
-116 -5 0
-117 -6 0
-121 -4 0
-122 -5 0
-123 -6 0
-73 -7 0
-74 -8 0
-75 -9 0
-85 -7 0
-86 -8 0
-87 -9 0
-97 -7 0
-98 -8 0
-99 -9 0
-118 -7 0
-119 -8 0
-120 -9 0
-124 -7 0
-125 -8 0
-126 -9 0
-130 -7 0
-131 -8 0
-132 -9 0
-139 -7 0
-140 -8 0
-141 -9 0
-67 -10 0
-68 -11 0
-69 -12 0
-79 -10 0
-80 -11 0
-81 -12 0
-61 -13 0
-62 -14 0
-63 -15 0
-97 -13 0
-98 -14 0
-99 -15 0
-109 -13 0
-110 -14 0
-111 -15 0
-127 -13 0
-128 -14 0
-129 -15 0
-145 -13 0
-146 -14 0
-147 -15 0
-58 -16 0
-59 -17 0
-60 -18 0
-73 -16 0
-74 -17 0
-75 -18 0
-85 -16 0
-86 -17 0
-87 -18 0
-103 -16 0
-104 -17 0
-105 -18 0
-109 -16 0
-110 -17 0
-111 -18 0
-145 -16 0
-146 -17 0
-147 -18 0
-109 -19 0
-110 -20 0
-111 -21 0
-136 -19 0
-137 -20 0
-138 -21 0
-52 -22 0
-53 -23 0
-54 -24 0
-58 -22 0
-59 -23 0
-60 -24 0
-100 -22 0
-101 -23 0
-102 -24 0
-115 -22 0
-116 -23 0
-117 -24 0
-118 -22 0
-119 -23 0
-120 -24 0
-127 -22 0
-128 -23 0
-129 -24 0
-145 -22 0
-146 -23 0
-147 -24 0
-52 -25 0
-53 -26 0
-54 -27 0
-85 -25 0
-86 -26 0
-87 -27 0
-139 -25 0
-140 -26 0
-141 -27 0
-148 -25 0
-149 -26 0
-150 -27 0
-52 -28 0
-53 -29 0
-54 -30 0
-64 -28 0
-65 -29 0
-66 -30 0
-67 -28 0
-68 -29 0
-69 -30 0
-91 -28 0
-92 -29 0
-93 -30 0
-106 -28 0
-107 -29 0
-108 -30 0
-121 -28 0
-122 -29 0
-123 -30 0
-64 -31 0
-65 -32 0
-66 -33 0
-106 -31 0
-107 -32 0
-108 -33 0
-142 -31 0
-143 -32 0
-144 -33 0
-70 -34 0
-71 -35 0
-72 -36 0
-88 -34 0
-89 -35 0
-90 -36 0
-94 -34 0
-95 -35 0
-96 -36 0
-97 -34 0
-98 -35 0
-99 -36 0
-109 -34 0
-110 -35 0
-111 -36 0
-136 -34 0
-137 -35 0
-138 -36 0
-64 -37 0
-65 -38 0
-66 -39 0
-73 -37 0
-74 -38 0
-75 -39 0
-79 -37 0
-80 -38 0
-81 -39 0
-124 -37 0
-125 -38 0
-126 -39 0
-142 -37 0
-143 -38 0
-144 -39 0
-55 -40 0
-56 -41 0
-57 -42 0
-61 -40 0
-62 -41 0
-63 -42 0
-100 -40 0
-101 -41 0
-102 -42 0
-106 -40 0
-107 -41 0
-108 -42 0
-115 -40 0
-116 -41 0
-117 -42 0
-136 -40 0
-137 -41 0
-138 -42 0
-106 -43 0
-107 -44 0
-108 -45 0
-115 -43 0
-116 -44 0
-117 -45 0
-127 -43 0
-128 -44 0
-129 -45 0
-76 -46 0
-77 -47 0
-78 -48 0
-85 -46 0
-86 -47 0
-87 -48 0
-100 -46 0
-101 -47 0
-102 -48 0
-103 -46 0
-104 -47 0
-105 -48 0
-52 -49 0
-53 -50 0
-54 -51 0
-70 -49 0
-71 -50 0
-72 -51 0
-88 -49 0
-89 -50 0
-90 -51 0
-121 -49 0
-122 -50 0
-123 -51 0
-115 -52 0
-116 -53 0
-117 -54 0
-136 -52 0
-137 -53 0
-138 -54 0
-106 -55 0
-107 -56 0
-108 -57 0
-109 -55 0
-110 -56 0
-111 -57 0
-112 -55 0
-113 -56 0
-114 -57 0
-130 -55 0
-131 -56 0
-132 -57 0
-130 -58 0
-131 -59 0
-132 -60 0
-139 -58 0
-140 -59 0
-141 -60 0
-148 -58 0
-149 -59 0
-150 -60 0
-142 -61 0
-143 -62 0
-144 -63 0
-103 -64 0
-104 -65 0
-105 -66 0
-109 -64 0
-110 -65 0
-111 -66 0
-115 -64 0
-116 -65 0
-117 -66 0
-142 -64 0
-143 -65 0
-144 -66 0
-103 -67 0
-104 -68 0
-105 -69 0
-106 -67 0
-107 -68 0
-108 -69 0
-115 -67 0
-116 -68 0
-117 -69 0
-124 -67 0
-125 -68 0
-126 -69 0
-106 -70 0
-107 -71 0
-108 -72 0
-112 -70 0
-113 -71 0
-114 -72 0
-130 -73 0
-131 -74 0
-132 -75 0
-130 -76 0
-131 -77 0
-132 -78 0
-139 -76 0
-140 -77 0
-141 -78 0
-142 -76 0
-143 -77 0
-144 -78 0
-148 -76 0
-149 -77 0
-150 -78 0
-106 -82 0
-107 -83 0
-108 -84 0
-115 -82 0
-116 -83 0
-117 -84 0
-142 -82 0
-143 -83 0
-144 -84 0
-109 -85 0
-110 -86 0
-111 -87 0
-127 -85 0
-128 -86 0
-129 -87 0
-121 -91 0
-122 -92 0
-123 -93 0
-133 -91 0
-134 -92 0
-135 -93 0
-145 -91 0
-146 -92 0
-147 -93 0
-112 -94 0
-113 -95 0
-114 -96 0
-127 -94 0
-128 -95 0
-129 -96 0
-103 -97 0
-104 -98 0
-105 -99 0
-109 -100 0
-110 -101 0
-111 -102 0
